NAME : XML100_2161_04
DIMENSION : 101
NB_CLUSTERS : 15
CLUSTERING_ALG : DBSCAN
CLUSTERING_PARAMS : eps(97), minSamples(3)
CLUSTERS
1 0
2 1 2 3 6 29 39 47 71 72 78 92 94 97
3 4 5 9 10 11 13 17 20 27 43 44 45 50 51 56 60 62 64 73 88 89 93
4 8 25 31 48 58 59 70 90
5 12 14 18 36 57 75
6 15 28 30 83
7 19 54 80 82
8 21 32 91
9 24 40 41 42 76 84 87 98
10 7 33 52 68
11 22 38 53 61 65 69 77 79 95 96 100
12 46 55 63 67 85 86
13 16 34 35 37 74 81 99
14 23 66
15 26 49
EOF